c DIMACS CNF Format
c Generated from parse tree
p cnf 26 100
-1 2 3 -4 5 6 0
-1 2 3 -4 7 8 0
-1 2 9 5 6 0
-1 2 9 7 8 0
-1 2 10 5 6 0
-1 2 10 7 8 0
-11 12 3 -4 5 6 0
-11 12 3 -4 7 8 0
-11 12 9 5 6 0
-11 12 9 7 8 0
-11 12 10 5 6 0
-11 12 10 7 8 0
-11 13 3 -4 5 6 0
-11 13 3 -4 7 8 0
-11 13 9 5 6 0
-11 13 9 7 8 0
-11 13 10 5 6 0
-11 13 10 7 8 0
-14 15 -16 -17 5 6 0
-14 15 -16 -17 7 8 0
-14 15 18 5 6 0
-14 15 18 7 8 0
-14 15 -19 -20 5 6 0
-14 15 -19 -20 7 8 0
-14 15 -19 -21 5 6 0
-14 15 -19 -21 7 8 0
-14 22 -16 -17 5 6 0
-14 22 -16 -17 7 8 0
-14 22 18 5 6 0
-14 22 18 7 8 0
-14 22 -19 -20 5 6 0
-14 22 -19 -20 7 8 0
-14 22 -19 -21 5 6 0
-14 22 -19 -21 7 8 0
-14 -23 -16 -17 5 6 0
-14 -23 -16 -17 7 8 0
-14 -23 18 5 6 0
-14 -23 18 7 8 0
-14 -23 -19 -20 5 6 0
-14 -23 -19 -20 7 8 0
-14 -23 -19 -21 5 6 0
-14 -23 -19 -21 7 8 0
-14 -24 -16 -17 5 6 0
-14 -24 -16 -17 7 8 0
-14 -24 18 5 6 0
-14 -24 18 7 8 0
-14 -24 -19 -20 5 6 0
-14 -24 -19 -20 7 8 0
-14 -24 -19 -21 5 6 0
-14 -24 -19 -21 7 8 0
-25 15 -16 -17 5 6 0
-25 15 -16 -17 7 8 0
-25 15 18 5 6 0
-25 15 18 7 8 0
-25 15 -19 -20 5 6 0
-25 15 -19 -20 7 8 0
-25 15 -19 -21 5 6 0
-25 15 -19 -21 7 8 0
-25 22 -16 -17 5 6 0
-25 22 -16 -17 7 8 0
-25 22 18 5 6 0
-25 22 18 7 8 0
-25 22 -19 -20 5 6 0
-25 22 -19 -20 7 8 0
-25 22 -19 -21 5 6 0
-25 22 -19 -21 7 8 0
-25 -23 -16 -17 5 6 0
-25 -23 -16 -17 7 8 0
-25 -23 18 5 6 0
-25 -23 18 7 8 0
-25 -23 -19 -20 5 6 0
-25 -23 -19 -20 7 8 0
-25 -23 -19 -21 5 6 0
-25 -23 -19 -21 7 8 0
-25 -24 -16 -17 5 6 0
-25 -24 -16 -17 7 8 0
-25 -24 18 5 6 0
-25 -24 18 7 8 0
-25 -24 -19 -20 5 6 0
-25 -24 -19 -20 7 8 0
-25 -24 -19 -21 5 6 0
-25 -24 -19 -21 7 8 0
-26 15 -16 -17 5 6 0
-26 15 -16 -17 7 8 0
-26 15 18 5 6 0
-26 15 18 7 8 0
-26 15 -19 -20 5 6 0
-26 15 -19 -20 7 8 0
-26 15 -19 -21 5 6 0
-26 15 -19 -21 7 8 0
-26 22 -16 -17 5 6 0
-26 22 -16 -17 7 8 0
-26 22 18 5 6 0
-26 22 18 7 8 0
-26 22 -19 -20 5 6 0
-26 22 -19 -20 7 8 0
-26 22 -19 -21 5 6 0
-26 22 -19 -21 7 8 0
-26 -23 -16 -17 5 6 0
-26 -23 -16 -17 7 8 0
